(set-logic QF_SLIA)
(set-option :produce-models true)
(declare-fun x () String)
(assert (str.in_re x (re.++ (re.+ (re.union (re.range "5" "9") (str.to_re "94"))) (str.to_re "77") (re.+ (re.++ (str.to_re "55") (re.* (re.union (re.range "3" "8") (re.range "4" "8"))))) (re.* (re.++ (str.to_re "92643") (re.+ (re.union (re.range "2" "5") (re.range "1" "9"))))))))
(assert (= (mod (mod (str.to_int x) 142) 134) 67))
(assert (> (str.len x) 100))
(check-sat)
(get-model)